(set-logic QF_S)
(declare-fun T_12 () Bool)
(declare-fun T_13 () Bool)
(declare-fun T_SELECT_3 () Bool)
(declare-fun PCTEMP_LHS_3 () Int)
(declare-fun T0_20 () String)
(declare-fun T1_20 () String)
(declare-fun var_0xINPUT_119415 () String)
(assert (= var_0xINPUT_119415 (str.++ T0_20 T1_20)))
(assert (not (str.in.re T1_20 (str.to.re "__utmc=16886264"))))
(assert T_13)
(assert (= T_13 (not T_12)))
(assert (= T_12 (< (- 1) PCTEMP_LHS_3)))
(assert (= PCTEMP_LHS_3 (- 1)))
(assert (= T_SELECT_3 (not (= PCTEMP_LHS_3 (- 1)))))
(assert (= 0 (str.len T0_20))) ; len 0
(assert (not T_SELECT_3))
(check-sat)
